c Sudoku solution
p cnf 729 0
137 0
283 0
296 0
314 0
322 0
398 0
434 0
463 0
492 0
517 0
561 0
574 0
599 0
632 0
649 0
678 0
693 0
687 0
779 0
812 0
829 0
419 0
848 0
857 0
447 0
931 0
942 0
782 0
988 0
552 0
458 0
955 0
969 0
924 0
727 0
997 0
151 0
189 0
194 0
741 0
753 0
244 0
259 0
339 0
356 0
343 0
145 0
367 0
172 0
168 0
262 0
277 0
546 0
665 0
654 0
585 0
425 0
884 0
795 0
891 0
764 0
866 0
835 0
913 0
873 0
976 0
116 0
123 0
215 0
221 0
238 0
611 0
626 0
718 0
736 0
528 0
533 0
375 0
381 0
471 0
486 0
